
(set-logic ALL) 

(declare-datatype MyList ((Nil) (Cons (head Real) (tail MyList)) )) 
(declare-fun l0 () MyList) 
(declare-fun l1 () MyList) 
(declare-fun l2 () MyList) 
(declare-fun l3 () MyList) 
(declare-fun i0 () Real) 
(declare-fun i1 () Real) 
(assert (is-Cons l1) )
(assert (is-Cons l3) )
(assert (and (= l3 Nil) (= l0 Nil)) )
(assert (and (= l1 l2) (= l1 l0) (= l0 Nil) (= l2 Nil)) )
(assert (or (is-Nil Nil) (is-Nil Nil)) )
(assert (is-Cons Nil) )
(assert (and (= l3 Nil) (= l0 Nil) (is-Cons l0)) )
(assert (= l2 Nil) )
(check-sat)
